Medium-instances_NetworkFacilityLocation/2023-03-27_20hr-25min-09sec/Nodes20_Arcs35_LocNodes15/Formulation-1Instance-5.lp
\ Model LocPrice
\ LP format - for model browsing. Use MPS format to capture full model detail.
Maximize
  - 163 x[1] - 172 x[2] - 188 x[3] - 165 x[4] - 150 x[5] - 151 x[6]
   - 159 x[8] - 162 x[9] - 198 x[10] - 166 x[12] - 196 x[13] - 178 x[16]
   - 152 x[18] - 153 x[19] - 189 x[20] - 3.397646278734935 Q[1]
   - 4.058812012226158 Q[2] - 3.712495056184706 Q[3]
   - 3.718768112447433 Q[4] - 4.822285594189109 Q[5]
   - 4.778471485994439 Q[6] - 4.220805663144881 Q[8]
   - 3.55950259255148 Q[9] - 3.309595351449194 Q[10]
   - 3.930693477567007 Q[12] - 3.339418629391801 Q[13]
   - 3.994092357122636 Q[16] - 3.14124396655015 Q[18]
   - 3.033566416905867 Q[19] - 4.063018689047518 Q[20] + [ 2 pi[1] * Q[1]
   + 2 pi[2] * Q[2] + 2 pi[3] * Q[3] + 2 pi[4] * Q[4] + 2 pi[5] * Q[5]
   + 2 pi[6] * Q[6] + 2 pi[8] * Q[8] + 2 pi[9] * Q[9] + 2 pi[10] * Q[10]
   + 2 pi[12] * Q[12] + 2 pi[13] * Q[13] + 2 pi[16] * Q[16]
   + 2 pi[18] * Q[18] + 2 pi[19] * Q[19] + 2 pi[20] * Q[20] ] / 2 
Subject To
 R0: Q[1] + Q[2] + Q[3] + Q[4] + Q[5] + Q[6] + Q[8] + Q[9] + Q[10] + Q[12]
   + Q[13] + Q[16] + Q[18] + Q[19] + Q[20] <= 1312
 R1: - 181 x[1] + Q[1] <= 0
 R2: - 133 x[2] + Q[2] <= 0
 R3: - 110 x[3] + Q[3] <= 0
 R4: - 189 x[4] + Q[4] <= 0
 R5: - 143 x[5] + Q[5] <= 0
 R6: - 146 x[6] + Q[6] <= 0
 R7: - 163 x[8] + Q[8] <= 0
 R8: - 146 x[9] + Q[9] <= 0
 R9: - 169 x[10] + Q[10] <= 0
 R10: - 188 x[12] + Q[12] <= 0
 R11: - 109 x[13] + Q[13] <= 0
 R12: - 134 x[16] + Q[16] <= 0
 R13: - 198 x[18] + Q[18] <= 0
 R14: - 189 x[19] + Q[19] <= 0
 R15: - 128 x[20] + Q[20] <= 0
 node[16]: - Q[16] + f[16,2] - f[19,16] = 0
 node[1]: - Q[1] - f[2,1] - f[4,1] - f[8,1] - f[14,1] - f[15,1] = 0
 node[13]: - Q[13] + f[13,5] - f[9,13] = 0
 node[9]: - Q[9] + f[9,2] + f[9,19] + f[9,13] = 0
 node[12]: - Q[12] + f[12,5] - f[5,12] - f[14,12] - S[12] = 0
 node[4]: - Q[4] + f[4,1] - f[17,4] - f[19,4] + f[4,10] - S[4] = 0
 node[5]: - Q[5] + f[5,2] - f[10,5] - f[12,5] - f[13,5] + f[5,15] + f[5,12]
   + f[5,19] + f[5,10] - f[8,5] - S[5] = 0
 node[19]: - Q[19] + f[19,17] + f[19,4] - f[5,19] + f[19,16] - f[9,19]
   + D[19] = 0
 node[18]: - Q[18] + f[18,17] + D[18] = 0
 node[3]: - Q[3] + f[3,2] - f[6,3] - f[11,3] + D[3] = 0
 node[6]: - Q[6] + f[6,3] - f[7,6] + f[6,10] - f[17,6] + D[6] = 0
 node[8]: - Q[8] + f[8,1] + f[8,11] + f[8,5] + D[8] - S[8] = 0
 node[2]: - Q[2] + f[2,1] - f[3,2] - f[5,2] - f[9,2] - f[16,2] + f[2,17]
   + D[2] - S[2] = 0
 node[10]: - Q[10] + f[10,5] - f[6,10] - f[4,10] - f[5,10] + D[10] - S[10]
   = 0
 node[20]: - Q[20] + f[20,14] + D[20] - S[20] = 0
 node[17]: f[17,11] - f[18,17] - f[19,17] - f[2,17] + f[17,4] + f[17,6]
   - S[17] = 0
 node[11]: f[11,3] - f[17,11] - f[8,11] - S[11] = 0
 node[14]: f[14,1] - f[20,14] + f[14,12] - S[14] = 0
 node[15]: f[15,1] - f[5,15] + D[15] = 0
 node[7]: f[7,6] + D[7] = 0
 Cost_Flow[2,1]: - pi[1] + pi[2] + 0.7848898925100045 f[2,1] - mu_f[2,1]
   = -1.073034006692334
 Cost_Flow[3,2]: - pi[2] + pi[3] + 1.992762603974608 f[3,2] - mu_f[3,2]
   = -0.9942393080708707
 Cost_Flow[4,1]: - pi[1] + pi[4] + 0.7490531316711235 f[4,1] - mu_f[4,1]
   = -2.758904944094833
 Cost_Flow[5,2]: - pi[2] + pi[5] + 1.065218291661491 f[5,2] - mu_f[5,2]
   = -2.610220057336318
 Cost_Flow[6,3]: - pi[3] + pi[6] + 0.7793196085661074 f[6,3] - mu_f[6,3]
   = -1.621152465109773
 Cost_Flow[7,6]: - pi[6] + pi[7] + 1.54735220258722 f[7,6] - mu_f[7,6]
   = -2.476128258714354
 Cost_Flow[8,1]: - pi[1] + pi[8] + 0.7550847467555764 f[8,1] - mu_f[8,1]
   = -2.600888611700147
 Cost_Flow[9,2]: - pi[2] + pi[9] + 0.514174317045563 f[9,2] - mu_f[9,2]
   = -2.308322894004674
 Cost_Flow[10,5]: - pi[5] + pi[10] + 0.9141139303673733 f[10,5]
   - mu_f[10,5] = -1.757560201360557
 Cost_Flow[11,3]: - pi[3] + pi[11] + 1.606736889574624 f[11,3] - mu_f[11,3]
   = -2.213892502626662
 Cost_Flow[12,5]: - pi[5] + pi[12] + 1.044055225386272 f[12,5] - mu_f[12,5]
   = -0.1654068846597641
 Cost_Flow[13,5]: - pi[5] + pi[13] + 1.357550308274939 f[13,5] - mu_f[13,5]
   = -0.9816793379503832
 Cost_Flow[14,1]: - pi[1] + pi[14] + 1.20431931518579 f[14,1] - mu_f[14,1]
   = -1.564412022702368
 Cost_Flow[15,1]: - pi[1] + pi[15] + 0.4706632356667253 f[15,1]
   - mu_f[15,1] = -0.3707205257766145
 Cost_Flow[16,2]: - pi[2] + pi[16] + 0.9633443365187169 f[16,2]
   - mu_f[16,2] = -0.6227398905338105
 Cost_Flow[17,11]: - pi[11] + pi[17] + 0.7780126126604106 f[17,11]
   - mu_f[17,11] = -0.5413241040936461
 Cost_Flow[18,17]: - pi[17] + pi[18] + 1.593882648685112 f[18,17]
   - mu_f[18,17] = -0.7199202214564769
 Cost_Flow[19,17]: - pi[17] + pi[19] + 0.5380274060346331 f[19,17]
   - mu_f[19,17] = -1.113929317523124
 Cost_Flow[20,14]: - pi[14] + pi[20] + 1.626269975389832 f[20,14]
   - mu_f[20,14] = -0.8689652763911746
 Cost_Flow[2,17]: pi[2] - pi[17] + 0.1246148174718944 f[2,17] - mu_f[2,17]
   = -0.4419576083843072
 Cost_Flow[5,15]: pi[5] - pi[15] + 0.4309645891729192 f[5,15] - mu_f[5,15]
   = -1.343485014686038
 Cost_Flow[5,12]: pi[5] - pi[12] + 1.735324451048082 f[5,12] - mu_f[5,12]
   = -2.70958568575119
 Cost_Flow[17,4]: - pi[4] + pi[17] + 1.293885121385309 f[17,4] - mu_f[17,4]
   = -0.9213822668776203
 Cost_Flow[19,4]: - pi[4] + pi[19] + 0.5165771047832244 f[19,4]
   - mu_f[19,4] = -2.02273116561813
 Cost_Flow[6,10]: pi[6] - pi[10] + 0.1755087052764652 f[6,10] - mu_f[6,10]
   = -2.726508869515488
 Cost_Flow[8,11]: pi[8] - pi[11] + 1.510141344489492 f[8,11] - mu_f[8,11]
   = -0.7752680926666451
 Cost_Flow[5,19]: pi[5] - pi[19] + 0.3249623942845601 f[5,19] - mu_f[5,19]
   = -2.345594376703802
 Cost_Flow[19,16]: - pi[16] + pi[19] + 0.5979245429879754 f[19,16]
   - mu_f[19,16] = -0.421152910406961
 Cost_Flow[9,19]: pi[9] - pi[19] + 1.760793928819965 f[9,19] - mu_f[9,19]
   = -1.379544361956713
 Cost_Flow[14,12]: - pi[12] + pi[14] + 1.404467681897226 f[14,12]
   - mu_f[14,12] = -2.144087278056182
 Cost_Flow[9,13]: pi[9] - pi[13] + 0.9682618620066572 f[9,13] - mu_f[9,13]
   = -2.839658381536603
 Cost_Flow[4,10]: pi[4] - pi[10] + 1.268906706560653 f[4,10] - mu_f[4,10]
   = -1.423179605543039
 Cost_Flow[17,6]: - pi[6] + pi[17] + 1.882532804546042 f[17,6] - mu_f[17,6]
   = -2.350719851489082
 Cost_Flow[5,10]: pi[5] - pi[10] + 1.742396948872825 f[5,10] - mu_f[5,10]
   = -0.6099214834836225
 Cost_Flow[8,5]: - pi[5] + pi[8] + 1.257496491313375 f[8,5] - mu_f[8,5]
   = -2.88919761440266
 Cost_Demand[2]: pi[2] + 3.64761272271406 D[2] - mu_D[2] = 1486
 Cost_Demand[3]: pi[3] + 3.031103653065952 D[3] - mu_D[3] = 1330
 Cost_Demand[6]: pi[6] + 3.185646013862105 D[6] - mu_D[6] = 1330
 Cost_Demand[7]: pi[7] + 3.556183001507048 D[7] - mu_D[7] = 1377
 Cost_Demand[8]: pi[8] + 3.429925060713308 D[8] - mu_D[8] = 1399
 Cost_Demand[10]: pi[10] + 3.964962920509429 D[10] - mu_D[10] = 1374
 Cost_Demand[15]: pi[15] + 3.461744524627985 D[15] - mu_D[15] = 1390
 Cost_Demand[18]: pi[18] + 3.950956651553408 D[18] - mu_D[18] = 1421
 Cost_Demand[19]: pi[19] + 3.18687785935671 D[19] - mu_D[19] = 1494
 Cost_Demand[20]: pi[20] + 3.851760450942621 D[20] - mu_D[20] = 1325
 Cost_Supply[2]: - pi[2] + 0.382531394887818 S[2] - mu_S[2]
   = -1.925763343764802
 Cost_Supply[4]: - pi[4] + 0.2418478315081009 S[4] - mu_S[4]
   = -1.024744803794728
 Cost_Supply[5]: - pi[5] + 0.8797659887027918 S[5] - mu_S[5]
   = -1.565490155663456
 Cost_Supply[8]: - pi[8] + 0.3589967691635699 S[8] - mu_S[8]
   = -1.632434049710962
 Cost_Supply[10]: - pi[10] + 0.2353143571155829 S[10] - mu_S[10]
   = -1.690141704257585
 Cost_Supply[11]: - pi[11] + 0.8450559941111534 S[11] - mu_S[11]
   = -1.317378495465187
 Cost_Supply[12]: - pi[12] + 0.1835429472385823 S[12] - mu_S[12]
   = -1.98682454609528
 Cost_Supply[14]: - pi[14] + 0.3943752451168405 S[14] - mu_S[14]
   = -1.601524061967049
 Cost_Supply[17]: - pi[17] + 0.9131538814658756 S[17] - mu_S[17]
   = -1.70338379925639
 Cost_Supply[20]: - pi[20] + 0.0245833327679293 S[20] - mu_S[20]
   = -1.06410430015799
Bounds
Binaries
 x[1] x[2] x[3] x[4] x[5] x[6] x[8] x[9] x[10] x[12] x[13] x[16] x[18]
 x[19] x[20]
SOS
 s0:  S1 :: f[2,1]:1 mu_f[2,1]:2
 s1:  S1 :: f[3,2]:1 mu_f[3,2]:2
 s2:  S1 :: f[4,1]:1 mu_f[4,1]:2
 s3:  S1 :: f[5,2]:1 mu_f[5,2]:2
 s4:  S1 :: f[6,3]:1 mu_f[6,3]:2
 s5:  S1 :: f[7,6]:1 mu_f[7,6]:2
 s6:  S1 :: f[8,1]:1 mu_f[8,1]:2
 s7:  S1 :: f[9,2]:1 mu_f[9,2]:2
 s8:  S1 :: f[10,5]:1 mu_f[10,5]:2
 s9:  S1 :: f[11,3]:1 mu_f[11,3]:2
 s10:  S1 :: f[12,5]:1 mu_f[12,5]:2
 s11:  S1 :: f[13,5]:1 mu_f[13,5]:2
 s12:  S1 :: f[14,1]:1 mu_f[14,1]:2
 s13:  S1 :: f[15,1]:1 mu_f[15,1]:2
 s14:  S1 :: f[16,2]:1 mu_f[16,2]:2
 s15:  S1 :: f[17,11]:1 mu_f[17,11]:2
 s16:  S1 :: f[18,17]:1 mu_f[18,17]:2
 s17:  S1 :: f[19,17]:1 mu_f[19,17]:2
 s18:  S1 :: f[20,14]:1 mu_f[20,14]:2
 s19:  S1 :: f[2,17]:1 mu_f[2,17]:2
 s20:  S1 :: f[5,15]:1 mu_f[5,15]:2
 s21:  S1 :: f[5,12]:1 mu_f[5,12]:2
 s22:  S1 :: f[17,4]:1 mu_f[17,4]:2
 s23:  S1 :: f[19,4]:1 mu_f[19,4]:2
 s24:  S1 :: f[6,10]:1 mu_f[6,10]:2
 s25:  S1 :: f[8,11]:1 mu_f[8,11]:2
 s26:  S1 :: f[5,19]:1 mu_f[5,19]:2
 s27:  S1 :: f[19,16]:1 mu_f[19,16]:2
 s28:  S1 :: f[9,19]:1 mu_f[9,19]:2
 s29:  S1 :: f[14,12]:1 mu_f[14,12]:2
 s30:  S1 :: f[9,13]:1 mu_f[9,13]:2
 s31:  S1 :: f[4,10]:1 mu_f[4,10]:2
 s32:  S1 :: f[17,6]:1 mu_f[17,6]:2
 s33:  S1 :: f[5,10]:1 mu_f[5,10]:2
 s34:  S1 :: f[8,5]:1 mu_f[8,5]:2
 s35:  S1 :: D[2]:1 mu_D[2]:2
 s36:  S1 :: D[3]:1 mu_D[3]:2
 s37:  S1 :: D[6]:1 mu_D[6]:2
 s38:  S1 :: D[7]:1 mu_D[7]:2
 s39:  S1 :: D[8]:1 mu_D[8]:2
 s40:  S1 :: D[10]:1 mu_D[10]:2
 s41:  S1 :: D[15]:1 mu_D[15]:2
 s42:  S1 :: D[18]:1 mu_D[18]:2
 s43:  S1 :: D[19]:1 mu_D[19]:2
 s44:  S1 :: D[20]:1 mu_D[20]:2
 s45:  S1 :: S[2]:1 mu_S[2]:2
 s46:  S1 :: S[4]:1 mu_S[4]:2
 s47:  S1 :: S[5]:1 mu_S[5]:2
 s48:  S1 :: S[8]:1 mu_S[8]:2
 s49:  S1 :: S[10]:1 mu_S[10]:2
 s50:  S1 :: S[11]:1 mu_S[11]:2
 s51:  S1 :: S[12]:1 mu_S[12]:2
 s52:  S1 :: S[14]:1 mu_S[14]:2
 s53:  S1 :: S[17]:1 mu_S[17]:2
 s54:  S1 :: S[20]:1 mu_S[20]:2
End
