Medium-instances_NetworkFacilityLocation/2023-03-27_20hr-25min-09sec/Nodes20_Arcs35_LocNodes15/Formulation-1Instance-5.log

Gurobi 9.5.2 (win64) logging started Mon Mar 27 20:51:55 2023

Set parameter LogFile to value "2023-03-27_20hr-25min-09sec/Nodes20_Arcs35_LocNodes15/Formulation-1Instance-5.log"
Set parameter TimeLimit to value 600
Set parameter IntFeasTol to value 1e-09
Set parameter DualReductions to value 0
Set parameter NonConvex to value 2
Gurobi Optimizer version 9.5.2 build v9.5.2rc0 (win64)
Thread count: 4 physical cores, 8 logical processors, using up to 8 threads
Optimize a model with 91 rows, 160 columns and 350 nonzeros
Model fingerprint: 0x4aad4f2b
Model has 15 quadratic objective terms
Model has 55 SOS constraints
Variable types: 145 continuous, 15 integer (15 binary)
Coefficient statistics:
  Matrix range     [2e-02, 2e+02]
  Objective range  [3e+00, 2e+02]
  QObjective range [2e+00, 2e+00]
  Bounds range     [1e+00, 1e+00]
  RHS range        [2e-01, 1e+03]
Presolve removed 4 rows and 9 columns
Presolve time: 0.01s
Presolved: 116 rows, 167 columns, 396 nonzeros
Presolved model has 48 SOS constraint(s)
Presolved model has 14 bilinear constraint(s)
Variable types: 152 continuous, 15 integer (15 binary)

Root relaxation: unbounded, 71 iterations, 0.00 seconds (0.00 work units)

    Nodes    |    Current Node    |     Objective Bounds      |     Work
 Expl Unexpl |  Obj  Depth IntInf | Incumbent    BestBd   Gap | It/Node Time

     0     0  postponed    0               -          -      -     -    0s
     0     0  postponed    0               -          -      -     -    0s
Exploring 100 nodes in MinRel heuristic
No solution found by MinRel heuristic
     0     2  postponed    0               -          -      -     -    0s
Exploring 10000 nodes in MinRel heuristic
H 4171   639                    -5743.179960          -      -  17.3    1s
Feasible solution found by MinRel heuristic at node 1403
H15175  1360                    -4042.113567          -      -  16.9    3s
H16010  1517                    186787.44386          -      -  16.7    3s
 21160  1498 infeasible   37      186787.444          -      -  15.7    5s
*24393  1568              73    187091.05952          -      -  15.5    5s
H25255  1579                    280986.53113          -      -  15.5    5s
H32879  1677                    289447.03034          -      -  14.8    7s
H36290  1702                    308908.95415          -      -  14.5    8s
*36778  1759             113    309423.45769          -      -  14.5    8s
 43448  1772  postponed   32      309423.458          -      -  14.2   10s
*58384  2028             109    310629.26791          -      -  13.7   13s
 62550  1998 infeasible   36      310629.268          -      -  13.6   15s
H64908  2052                    310818.86933          -      -  13.4   15s
H67130  2072                    310983.86933          -      -  13.4   15s
*69405  2113              76    315263.33805          -      -  13.4   16s
H71129  2108                    315428.33805          -      -  13.3   17s
H77160  2249                    315535.25440          -      -  13.2   18s
 82853  2363 infeasible   40      315535.254          -      -  13.1   20s
H91335  2405                    315557.99170          -      -  13.1   22s
H94753  2503                    315775.81909          -      -  12.9   23s
 100813  2556 infeasible   37      315775.819          -      -  12.9   25s
 120850  2673 infeasible   37      315775.819          -      -  12.7   30s
H124247  2677                    315953.81909          -      -  12.7   31s
*125623  2362              89    316541.37268          -      -  12.7   31s
*128126  2281             165    317606.31118          -      -  12.6   31s
*128131  2281             165    317606.31124          -      -  12.6   31s
H129675  2153                    317771.31124          -      -  12.6   32s
H132247  2581                    317922.80781          -      -  12.6   33s
H132413  2523                    320289.87699          -      -  12.6   33s
H132550  2523                    320390.00180          -      -  12.6   33s
H132687  2523                    320390.10310          -      -  12.6   33s
H133440  2027                    320555.10310          -      -  12.6   33s
 136014  2406 infeasible   39      320555.103          -      -  12.7   35s
*136135  2406             106    320555.33816          -      -  12.7   35s
*136137  2406             107    320555.35550          -      -  12.7   35s
H136191  2318                    322640.56163          -      -  12.7   35s
*137154  2218             107    325124.31788          -      -  12.7   35s
*137156  2218             108    325125.58515          -      -  12.7   35s
*137163  2218             110    325125.60244          -      -  12.7   35s
*137165  2218             111    325125.60329          -      -  12.7   35s
H138115  1997                    325487.60329          -      -  12.7   35s
H138928  2101                    327189.04319          -      -  12.7   35s
H140230  1908                    327520.04319          -      -  12.7   36s
H142821  2003                    327576.22957          -      -  12.8   37s
H144618  2078                    327577.53536          -      -  12.8   37s
 151278  2259     cutoff   31      327577.535          -      -  13.1   40s
 167698  4065     cutoff   52      327577.535 364077.781  11.1%  13.1   45s
 196390  6556     cutoff   46      327577.535 346615.733  5.81%  11.5   50s
H202636  6725                    327586.35798 344874.793  5.28%  11.2   51s
*202639  6725              75    327586.78716 344874.793  5.28%  11.2   51s
*202641  6725              76    327586.86931 344874.793  5.28%  11.2   51s
*202644  6725              78    327586.88493 344874.793  5.28%  11.2   51s
*202646  6723              79    327586.89551 344874.793  5.28%  11.2   51s
*202648  6723              80    327586.90277 344874.793  5.28%  11.2   51s
*202650  6723              81    327586.90777 344874.793  5.28%  11.2   51s
*202652  6723              82    327586.91124 344874.793  5.28%  11.2   51s
*202654  6723              83    327586.91365 344874.793  5.28%  11.2   51s
*202656  6723              84    327586.91533 344874.793  5.28%  11.2   51s
*202658  6723              85    327586.91651 344874.793  5.28%  11.2   51s
*202660  6723              86    327586.91733 344874.793  5.28%  11.2   51s
*202662  6723              87    327586.91790 344874.793  5.28%  11.2   51s
*202664  6723              88    327586.91831 344874.793  5.28%  11.2   51s
*202666  6723              89    327586.91859 344874.793  5.28%  11.2   51s
*202668  6723              90    327586.91879 344874.793  5.28%  11.2   51s
*202670  6723              91    327586.91893 344874.793  5.28%  11.2   51s
*202672  6723              92    327586.91902 344874.793  5.28%  11.2   51s
*202674  6723              93    327586.91909 344874.793  5.28%  11.2   51s
*202676  6723              94    327586.91914 344874.793  5.28%  11.2   51s
*202678  6723              95    327586.91917 344874.793  5.28%  11.2   51s
*203465  6722              96    327586.91925 344690.633  5.22%  11.1   51s
 229250  6405 336505.338   52    7 327586.919 338988.077  3.48%  10.0   55s
*240140  6134              70    327587.70379 337036.203  2.88%   9.7   56s
*240142  6133              71    327588.13905 337036.203  2.88%   9.7   56s
*240144  6133              72    327588.24590 337036.203  2.88%   9.7   56s
*240146  6133              73    327588.27162 337036.203  2.88%   9.7   56s
*240148  6133              74    327588.27756 337036.203  2.88%   9.7   56s
*240150  6133              75    327588.27880 337036.203  2.88%   9.7   56s
H240151  6133                    327588.27898 337036.203  2.88%   9.7   56s
H241529  6079                    327592.71976 336796.275  2.81%   9.6   56s
H243842  5997                    327592.71981 336387.808  2.68%   9.5   57s
 262448  4840     cutoff   59      327592.720 333321.984  1.75%   9.0   60s
 295096  1382 328726.037   38    4 327592.720 328741.706  0.35%   8.1   65s
*299073   517              85    327593.09233 328005.151  0.13%   8.1   65s
*300361   290              74    327593.71739 327759.467  0.05%   8.0   65s
*300987   290              80    327593.77917 327689.359  0.03%   8.0   65s
*300988   290              80    327593.84063 327689.359  0.03%   8.0   65s
*300997   290              82    327593.87229 327689.359  0.03%   8.0   65s
*301002   290              83    327593.87353 327689.359  0.03%   8.0   65s
*301003   290              84    327593.87372 327689.359  0.03%   8.0   65s
*301443   241              98    327593.98697 327672.399  0.02%   8.0   66s
*301446   241              99    327593.99599 327672.399  0.02%   8.0   66s

Explored 301891 nodes (2413158 simplex iterations) in 66.08 seconds (11.83 work units)
Thread count was 8 (of 8 available processors)

Solution count 10: 327594 327594 327594 ... 327593

Optimal solution found (tolerance 1.00e-04)
Best objective 3.275939959937e+05, best bound 3.276158436316e+05, gap 0.0067%

User-callback calls 606986, time in user-callback 6.22 sec
